852915685693149313 -1 0
988952357849688135 2 0
1123279806107870351 -1 0
1319585100005718065 3 0
1239455073676331408 -4 0
835377677061682875 -3 0
946382417640310570 2 0
979829786587405468 1 0
984466279236096618 3 0
